(set-logic HORN)
(declare-datatypes ((Nat_0 0)) (((Z_1 ) (Z_2 (unS_0 Nat_0)))))
(declare-fun diseqNat_0 (Nat_0 Nat_0) Bool)
(declare-datatypes ((list_0 0)) (((nil_0 ) (cons_0 (head_0 Nat_0) (tail_0 list_0)))))
(declare-fun diseqlist_0 (list_0 list_0) Bool)
(declare-fun x_0 (list_0 list_0 list_0) Bool)
(assert (forall ((x_26 Nat_0))
	(diseqNat_0 Z_1 (Z_2 x_26))))
(assert (forall ((x_27 Nat_0))
	(diseqNat_0 (Z_2 x_27) Z_1)))
(assert (forall ((x_28 Nat_0) (x_29 Nat_0))
	(=> (diseqNat_0 x_28 x_29) (diseqNat_0 (Z_2 x_28) (Z_2 x_29)))))
(assert (forall ((x_14 Nat_0) (x_15 list_0))
	(diseqlist_0 nil_0 (cons_0 x_14 x_15))))
(assert (forall ((x_16 Nat_0) (x_17 list_0))
	(diseqlist_0 (cons_0 x_16 x_17) nil_0)))
(assert (forall ((x_18 Nat_0) (x_19 list_0) (x_20 Nat_0) (x_21 list_0))
	(=> (diseqNat_0 x_18 x_20) (diseqlist_0 (cons_0 x_18 x_19) (cons_0 x_20 x_21)))))
(assert (forall ((x_18 Nat_0) (x_19 list_0) (x_20 Nat_0) (x_21 list_0))
	(=> (diseqlist_0 x_19 x_21) (diseqlist_0 (cons_0 x_18 x_19) (cons_0 x_20 x_21)))))
(assert (forall ((x_3 list_0) (z_0 Nat_0) (xs_0 list_0) (y_0 list_0))
	(=> (x_0 x_3 xs_0 y_0) (x_0 (cons_0 z_0 x_3) (cons_0 z_0 xs_0) y_0))))
(assert (forall ((x_4 list_0))
	(x_0 x_4 nil_0 x_4)))
(assert (forall ((x_5 list_0) (xs_1 list_0) (ys_0 list_0) (zs_0 list_0))
	(=> (and (diseqlist_0 xs_1 ys_0) (x_0 x_5 xs_1 zs_0) (x_0 x_5 ys_0 zs_0)) false)))
(check-sat)
(get-model)
